Gurobi 12.0.3:   lim:time = 14400

  mip:bestbound = 1

Set parameter LogToConsole to value 1

  tech:outlev = 1

Set parameter Cuts to value 3

  cut:cuts = 3

Set parameter Presolve to value 2

  pre:solve = 2

Set parameter MIPFocus to value 2

  mip:focus = 2

Set parameter Symmetry to value 2

  mip:symmetry = 2

Set parameter InfUnbdInfo to value 1

Gurobi Optimizer version 12.0.3 build v12.0.3rc0 (win64 - Windows 11+.0 (26200.2))



CPU model: 13th Gen Intel(R) Core(TM) i7-13700K, instruction set [SSE2|AVX|AVX2]

Thread count: 16 physical cores, 24 logical processors, using up to 24 threads



Non-default parameters:

TimeLimit  14400

MIPFocus  2

Symmetry  2

Cuts  3

InfUnbdInfo  1

Presolve  2



Optimize a model with 405 rows, 740 columns and 4189 nonzeros

Model fingerprint: 0x5132ded8

Model has 1 quadratic objective term

Model has 6 quadratic constraints

Variable types: 34 continuous, 706 integer (0 binary)

Coefficient statistics:

  Matrix range     [1e+00, 1e+05]

  QMatrix range    [1e+00, 1e+00]

  QLMatrix range   [1e+00, 1e+01]

  Objective range  [3e+00, 1e+02]

  QObjective range [2e+00, 2e+00]

  Bounds range     [1e+00, 1e+02]

  RHS range        [1e+00, 1e+05]

  QRHS range       [1e+02, 1e+02]

Presolve removed 45 rows and 100 columns

Presolve time: 0.35s

Presolved: 888 rows, 1077 columns, 6442 nonzeros

Variable types: 58 continuous, 1019 integer (879 binary)

Found heuristic solution: objective 513.8100000

Root relaxation presolve removed 32 rows and 1 columns

Root relaxation presolved: 509 rows, 830 columns, 6370 nonzeros





Root relaxation: objective 8.941072e+01, 71 iterations, 0.01 seconds (0.01 work units)



    Nodes    |    Current Node    |     Objective Bounds      |     Work

 Expl Unexpl |  Obj  Depth IntInf | Incumbent    BestBd   Gap | It/Node Time



     0     0   89.41072    0   51  513.81000   89.41072  82.6%     -    0s

H    0     0                     479.0700000   89.41072  81.3%     -    0s

     0     0  152.81030    0   37  479.07000  152.81030  68.1%     -    0s

     0     0  152.81030    0   29  479.07000  152.81030  68.1%     -    0s

     0     0  152.81030    0   31  479.07000  152.81030  68.1%     -    0s

H    0     0                     471.0000000  152.81384  67.6%     -    0s

H    0     0                     469.6000000  152.81384  67.5%     -    0s

     0     0  152.82189    0   60  469.60000  152.82189  67.5%     -    0s

     0     0  165.85250    0   48  469.60000  165.85250  64.7%     -    0s

     0     0  172.28667    0   68  469.60000  172.28667  63.3%     -    0s

     0     0  173.32889    0   57  469.60000  173.32889  63.1%     -    0s

H    0     0                     357.4800000  173.32889  51.5%     -    0s

H    0     0                     355.3500000  195.28542  45.0%     -    1s

     0     0  195.28542    0   63  355.35000  195.28542  45.0%     -    1s

H    0     0                     326.2300000  197.35400  39.5%     -    1s

     0     0  197.35400    0   60  326.23000  197.35400  39.5%     -    1s

     0     0  197.56537    0   73  326.23000  197.56537  39.4%     -    1s

H    0     0                     325.3300000  211.28786  35.1%     -    1s

H    0     0                     324.8600000  211.28786  35.0%     -    1s

     0     0  218.66258    0  102  324.86000  218.66258  32.7%     -    1s

     0     0  218.66258    0  102  324.86000  218.66258  32.7%     -    1s

H    0     2                     324.6100000  218.66258  32.6%     -    1s

     0     2  218.66258    0  101  324.61000  218.66258  32.6%     -    1s

H   32    44                     323.1600000  218.66258  32.3%  41.3    1s

  6013  1340  293.50667   24  156  323.16000  262.18333  18.9%  17.2    5s



Cutting planes:

  Learned: 5

  Gomory: 6

  Lift-and-project: 2

  Cover: 8

  Implied bound: 34

  Projected implied bound: 1

  Clique: 14

  MIR: 19

  Mixing: 2

  StrongCG: 1

  Flow cover: 146

  Inf proof: 9

  Zero half: 98

  RLT: 31

  Relax-and-lift: 8



Explored 10395 nodes (186233 simplex iterations) in 8.49 seconds (7.77 work units)

Thread count was 24 (of 24 available processors)



Solution count 10: 323.16 324.61 324.86 ... 479.07



Optimal solution found (tolerance 1.00e-04)

Best objective 3.231600000000e+02, best bound 3.231600000000e+02, gap 0.0000%



AMPL MP initial flat model has 740 variables (0 integer, 706 binary);

Objectives: 1 quadratic; 

Constraints:  405 linear; 6 quadratic;



AMPL MP final model has 740 variables (0 integer, 706 binary);

Objectives: 1 quadratic; 

Constraints:  405 linear; 6 quadratic;





-----RESULTS INFO-----
running_time:  8.687999999999999
TC.best_bound:  323.16
TC:  323.16
MIP Gap (%):  0
=== Vehicle Routes ===
Vehicle 1: 0 → 3
Vehicle 1: 1 → 19
Vehicle 1: 3 → 12
Vehicle 1: 9 → 1
Vehicle 1: 12 → 18
Vehicle 1: 18 → 9
Vehicle 2: 0 → 2
Vehicle 2: 2 → 14
Vehicle 2: 14 → 19
Vehicle 3: 0 → 19
Vehicle 4: 0 → 19

=== Full Vehicle Routes ===
Vehicle 1: 0 → 3 → 12 → 18 → 9 → 1 → 0 (70<100)
Vehicle 2: 0 → 2 → 14 → 0 (83<100)
Vehicle 3: 0 → 0 (0<100)
Vehicle 4: 0 → 0 (0<100)
Arc used by MRT line: y variables:
MRT used: 12 → 13
Customer assigment to PL: u variables:
4 14
5 14
6 14
7 14
8 18
10 13
11 14
Node is served by regular vehicle: g variables:
1
2
3
9
18
12
14
Customer assigment to Home delivery: gm variables:
1
2
3
9
Node total demands: ntd variables:
1 13 1
2 13 1
3 12 1
8 0 0
9 10 1
10 0 0
11 0 0
18 23 1
12 12 1
13 0 0
14 70 1
15 0 0
16 0 0
17 0 0
Customer's demand delivered to PL: l variables:
4
5
6
7
8
10
11
Lockers load <= capacity:
23 <= 79
0 <= 81
12 <= 83
70 <= 100
0 <= 99
0 <= 94
0 <= 86
